TYPE : Vertex Cover
DIMENSION: 30
EDGE_DATA_SECTION:
0 1
0 6
0 12
0 24
0 29
1 3
1 6
1 17
1 29
2 4
2 5
2 6
2 11
2 15
2 17
2 20
2 27
2 29
3 8
3 9
3 13
3 18
3 26
3 27
4 6
4 7
4 18
4 20
5 12
5 15
5 16
5 21
5 29
6 9
6 20
6 21
6 24
6 26
7 8
7 20
7 21
7 25
7 27
7 28
8 13
8 16
8 22
9 10
9 14
9 21
9 26
9 28
10 14
10 17
10 18
10 22
10 24
10 26
10 27
10 28
11 23
11 25
12 16
12 17
12 22
12 26
13 14
13 26
14 20
14 24
15 16
15 18
15 21
15 29
16 18
16 22
16 24
17 27
18 22
18 26
18 29
19 20
19 23
19 24
19 25
20 22
20 24
20 28
20 29
21 23
22 24
22 25
22 26
22 27
22 28
23 24
23 26
27 29
-1
VERTEX_DEGREE:
5.0 5.0 9.0 7.0 5.0 6.0 9.0 7.0 5.0 7.0 9.0 3.0 6.0 4.0 5.0 6.0 7.0 5.0 8.0 4.0 10.0 6.0 11.0 5.0 9.0 4.0 9.0 7.0 5.0 8.0
VERTEX_COVER:
0 1 2 3 5 6 7 8 9 10 12 13 15 18 20 22 23 24 25 27
EOF
